p ds 20 5
1 3
1 4
1 5
1 6
1 7
1 9
1 11
1 12
1 16
1 17
1 18
1 19
1 20
2 4
2 6
2 7
2 8
2 9
2 11
2 18
2 19
2 20
3 6
3 7
3 8
3 10
3 11
3 12
3 16
3 17
3 18
4 6
4 7
4 8
4 10
4 12
4 16
4 19
4 20
5 6
5 8
5 9
5 10
5 11
5 12
5 13
5 16
5 18
5 20
6 8
6 9
6 10
6 11
6 13
6 15
6 16
6 17
6 20
7 8
7 9
7 10
7 12
7 16
7 18
7 19
8 10
8 12
8 13
8 14
8 15
8 16
8 17
8 19
9 11
9 12
9 14
9 16
9 17
9 18
9 20
10 12
10 15
10 16
10 17
10 18
11 13
11 16
11 17
11 18
11 20
12 13
12 14
12 15
12 16
12 17
13 14
13 15
13 16
13 17
13 20
14 15
14 18
15 16
15 18
15 19
15 20
16 17
16 18
16 19
16 20
17 18
17 20
18 20
19 20
